generated by phonopy
   1.0
     0.0000000000000000    3.3399999999999994    3.3399999999999994
     3.3399999999999994    0.0000000000000000    3.3399999999999994
     3.3399999999999994    3.3399999999999994    0.0000000000000000
Ca Li As
   1    1    1
Direct
  0.0000000000000000  0.0000000000000000  0.0000000000000000
  0.5000000000000000  0.5000000000000000  0.5000000000000000
  0.2500000000000000  0.2500000000000000  0.2500000000000000
