generated by phonopy
   1.0
     7.8579129999999999    0.0000000000000000    0.0000000000000000
     0.0000000000000000    7.8579129999999999    0.0000000000000000
     0.0000000000000000    0.0000000000000000    7.9713101885709978
Sr Ti O
   8    8   24
Direct
  0.0000000000000000  0.0000000000000000  0.0120086887400923
  0.5000000000000000  0.0000000000000000  0.0120086887400923
  0.0000000000000000  0.5000000000000000  0.0120086887400923
  0.5000000000000000  0.5000000000000000  0.0120086887400923
  0.0000000000000000  0.0000000000000000  0.5120086887400923
  0.5000000000000000  0.0000000000000000  0.5120086887400923
  0.0000000000000000  0.5000000000000000  0.5120086887400923
  0.5000000000000000  0.5000000000000000  0.5120086887400923
  0.2500000000000000  0.2500000000000000  0.2629525685291441
  0.7500000000000000  0.2500000000000000  0.2629525685291441
  0.2500000000000000  0.7500000000000000  0.2629525685291441
  0.7500000000000000  0.7500000000000000  0.2629525685291441
  0.2500000000000000  0.2500000000000000  0.7629525685291441
  0.7500000000000000  0.2500000000000000  0.7629525685291441
  0.2500000000000000  0.7500000000000000  0.7629525685291441
  0.7500000000000000  0.7500000000000000  0.7629525685291441
  0.0000000000000000  0.2500000000000000  0.2497353761473456
  0.5000000000000000  0.2500000000000000  0.2497353761473456
  0.0000000000000000  0.7500000000000000  0.2497353761473456
  0.5000000000000000  0.7500000000000000  0.2497353761473456
  0.0000000000000000  0.2500000000000000  0.7497353761473455
  0.5000000000000000  0.2500000000000000  0.7497353761473455
  0.0000000000000000  0.7500000000000000  0.7497353761473455
  0.5000000000000000  0.7500000000000000  0.7497353761473455
  0.2500000000000000  0.0000000000000000  0.2497353761473456
  0.7500000000000000  0.0000000000000000  0.2497353761473456
  0.2500000000000000  0.5000000000000000  0.2497353761473456
  0.7500000000000000  0.5000000000000000  0.2497353761473456
  0.2500000000000000  0.0000000000000000  0.7497353761473455
  0.7500000000000000  0.0000000000000000  0.7497353761473455
  0.2500000000000000  0.5000000000000000  0.7497353761473455
  0.7500000000000000  0.5000000000000000  0.7497353761473455
  0.2500000000000000  0.2500000000000000  0.0005679904360782
  0.7500000000000000  0.2500000000000000  0.0005679904360782
  0.2500000000000000  0.7500000000000000  0.0005679904360782
  0.7500000000000000  0.7500000000000000  0.0005679904360782
  0.2500000000000000  0.2500000000000000  0.5005679904360782
  0.7500000000000000  0.2500000000000000  0.5005679904360782
  0.2500000000000000  0.7500000000000000  0.5005679904360782
  0.7500000000000000  0.7500000000000000  0.5005679904360782
