Be4 Au4
1.0
4.723566 0.000000 0.000000
0.000000 4.723566 0.000000
0.000000 0.000000 4.723566
Be Au
4 4
direct
0.153453 0.346547 0.653453 Be
0.346547 0.653453 0.153453 Be
0.653453 0.153453 0.346547 Be
0.846547 0.846547 0.846547 Be
0.844944 0.655056 0.344944 Au
0.655056 0.344944 0.844944 Au
0.344944 0.844944 0.655056 Au
0.155056 0.155056 0.155056 Au
