generated by phonopy                    
   1.00000000000000     
     3.9289565000000000    0.0000000000000000    0.0000000000000000
     0.0000000000000000    3.9289565000000000    0.0000000000000000
     0.0000000000000000    0.0000000000000000    3.9856550942854989
   Sr   Ti   O 
     1     1     3
Direct
  0.0000000000000000  0.0000000000000000  0.0240173774801846
  0.5000000000000000  0.5000000000000000  0.5259051370582881
  0.0000000000000000  0.5000000000000000  0.4994707522946911
  0.5000000000000000  0.0000000000000000  0.4994707522946911
  0.5000000000000000  0.5000000000000000  0.0011359808721565
 
  0.00000000E+00  0.00000000E+00  0.00000000E+00
  0.00000000E+00  0.00000000E+00  0.00000000E+00
  0.00000000E+00  0.00000000E+00  0.00000000E+00
  0.00000000E+00  0.00000000E+00  0.00000000E+00
  0.00000000E+00  0.00000000E+00  0.00000000E+00
