generated by phonopy
   1.0
    12.3000000000000007    0.0000000000000000    0.0000000000000000
     6.1500000000000004   10.6521124665485960    0.0000000000000000
     0.0000000000000000    0.0000000000000000   10.0000000000000000
C
  50
Direct
  0.0000000000000000  0.0000000000000000  0.5000000000000000
  0.2000000000000000  0.0000000000000000  0.5000000000000000
  0.4000000000000000  0.0000000000000000  0.5000000000000000
  0.6000000000000001  0.0000000000000000  0.5000000000000000
  0.8000000000000000  0.0000000000000000  0.5000000000000000
  0.0000000000000000  0.2000000000000000  0.5000000000000000
  0.2000000000000000  0.2000000000000000  0.5000000000000000
  0.4000000000000000  0.2000000000000000  0.5000000000000000
  0.6000000000000001  0.2000000000000000  0.5000000000000000
  0.8000000000000000  0.2000000000000000  0.5000000000000000
  0.0000000000000000  0.4000000000000000  0.5000000000000000
  0.2000000000000000  0.4000000000000000  0.5000000000000000
  0.4000000000000000  0.4000000000000000  0.5000000000000000
  0.6000000000000001  0.4000000000000000  0.5000000000000000
  0.8000000000000000  0.4000000000000000  0.5000000000000000
  0.0000000000000000  0.6000000000000001  0.5000000000000000
  0.2000000000000000  0.6000000000000001  0.5000000000000000
  0.4000000000000000  0.6000000000000001  0.5000000000000000
  0.6000000000000001  0.6000000000000001  0.5000000000000000
  0.8000000000000000  0.6000000000000001  0.5000000000000000
  0.0000000000000000  0.8000000000000000  0.5000000000000000
  0.2000000000000000  0.8000000000000000  0.5000000000000000
  0.4000000000000000  0.8000000000000000  0.5000000000000000
  0.6000000000000001  0.8000000000000000  0.5000000000000000
  0.8000000000000000  0.8000000000000000  0.5000000000000000
  0.0666666666000000  0.0666666666000000  0.5000000000000000
  0.2666666666000000  0.0666666666000000  0.5000000000000000
  0.4666666666000001  0.0666666666000000  0.5000000000000000
  0.6666666666000001  0.0666666666000000  0.5000000000000000
  0.8666666666000000  0.0666666666000000  0.5000000000000000
  0.0666666666000000  0.2666666666000000  0.5000000000000000
  0.2666666666000000  0.2666666666000000  0.5000000000000000
  0.4666666666000001  0.2666666666000000  0.5000000000000000
  0.6666666666000001  0.2666666666000000  0.5000000000000000
  0.8666666666000000  0.2666666666000000  0.5000000000000000
  0.0666666666000000  0.4666666666000001  0.5000000000000000
  0.2666666666000000  0.4666666666000001  0.5000000000000000
  0.4666666666000001  0.4666666666000001  0.5000000000000000
  0.6666666666000001  0.4666666666000001  0.5000000000000000
  0.8666666666000000  0.4666666666000001  0.5000000000000000
  0.0666666666000000  0.6666666666000001  0.5000000000000000
  0.2666666666000000  0.6666666666000001  0.5000000000000000
  0.4666666666000001  0.6666666666000001  0.5000000000000000
  0.6666666666000001  0.6666666666000001  0.5000000000000000
  0.8666666666000000  0.6666666666000001  0.5000000000000000
  0.0666666666000000  0.8666666666000000  0.5000000000000000
  0.2666666666000000  0.8666666666000000  0.5000000000000000
  0.4666666666000001  0.8666666666000000  0.5000000000000000
  0.6666666666000001  0.8666666666000000  0.5000000000000000
  0.8666666666000000  0.8666666666000000  0.5000000000000000
