generated by phonopy
   1.0
     9.4471319999999999    0.0000000000000000    0.0000000000000000
     0.0000000000000000    9.4471319999999999    0.0000000000000000
     0.0000000000000000    0.0000000000000000    9.4471319999999999
Be Au
  32   32
Direct
  0.0767265000000000  0.1732735000000000  0.3267265000000000
  0.5767265000000000  0.1732735000000000  0.3267265000000000
  0.0767265000000000  0.6732735000000000  0.3267265000000000
  0.5767265000000000  0.6732735000000000  0.3267265000000000
  0.0767265000000000  0.1732735000000000  0.8267264999999999
  0.5767265000000000  0.1732735000000000  0.8267264999999999
  0.0767265000000000  0.6732735000000000  0.8267264999999999
  0.5767265000000000  0.6732735000000000  0.8267264999999999
  0.1732735000000000  0.3267265000000000  0.0767265000000000
  0.6732735000000000  0.3267265000000000  0.0767265000000000
  0.1732735000000000  0.8267264999999999  0.0767265000000000
  0.6732735000000000  0.8267264999999999  0.0767265000000000
  0.1732735000000000  0.3267265000000000  0.5767265000000000
  0.6732735000000000  0.3267265000000000  0.5767265000000000
  0.1732735000000000  0.8267264999999999  0.5767265000000000
  0.6732735000000000  0.8267264999999999  0.5767265000000000
  0.3267265000000000  0.0767265000000000  0.1732735000000000
  0.8267264999999999  0.0767265000000000  0.1732735000000000
  0.3267265000000000  0.5767265000000000  0.1732735000000000
  0.8267264999999999  0.5767265000000000  0.1732735000000000
  0.3267265000000000  0.0767265000000000  0.6732735000000000
  0.8267264999999999  0.0767265000000000  0.6732735000000000
  0.3267265000000000  0.5767265000000000  0.6732735000000000
  0.8267264999999999  0.5767265000000000  0.6732735000000000
  0.4232735000000000  0.4232735000000000  0.4232735000000000
  0.9232735000000001  0.4232735000000000  0.4232735000000000
  0.4232735000000000  0.9232735000000001  0.4232735000000000
  0.9232735000000001  0.9232735000000001  0.4232735000000000
  0.4232735000000000  0.4232735000000000  0.9232735000000001
  0.9232735000000001  0.4232735000000000  0.9232735000000001
  0.4232735000000000  0.9232735000000001  0.9232735000000001
  0.9232735000000001  0.9232735000000001  0.9232735000000001
  0.4224720000000000  0.3275280000000000  0.1724720000000000
  0.9224720000000000  0.3275280000000000  0.1724720000000000
  0.4224720000000000  0.8275280000000000  0.1724720000000000
  0.9224720000000000  0.8275280000000000  0.1724720000000000
  0.4224720000000000  0.3275280000000000  0.6724720000000000
  0.9224720000000000  0.3275280000000000  0.6724720000000000
  0.4224720000000000  0.8275280000000000  0.6724720000000000
  0.9224720000000000  0.8275280000000000  0.6724720000000000
  0.3275280000000000  0.1724720000000000  0.4224720000000000
  0.8275280000000000  0.1724720000000000  0.4224720000000000
  0.3275280000000000  0.6724720000000000  0.4224720000000000
  0.8275280000000000  0.6724720000000000  0.4224720000000000
  0.3275280000000000  0.1724720000000000  0.9224720000000000
  0.8275280000000000  0.1724720000000000  0.9224720000000000
  0.3275280000000000  0.6724720000000000  0.9224720000000000
  0.8275280000000000  0.6724720000000000  0.9224720000000000
  0.1724720000000000  0.4224720000000000  0.3275280000000000
  0.6724720000000000  0.4224720000000000  0.3275280000000000
  0.1724720000000000  0.9224720000000000  0.3275280000000000
  0.6724720000000000  0.9224720000000000  0.3275280000000000
  0.1724720000000000  0.4224720000000000  0.8275280000000000
  0.6724720000000000  0.4224720000000000  0.8275280000000000
  0.1724720000000000  0.9224720000000000  0.8275280000000000
  0.6724720000000000  0.9224720000000000  0.8275280000000000
  0.0775280000000000  0.0775280000000000  0.0775280000000000
  0.5775280000000000  0.0775280000000000  0.0775280000000000
  0.0775280000000000  0.5775280000000000  0.0775280000000000
  0.5775280000000000  0.5775280000000000  0.0775280000000000
  0.0775280000000000  0.0775280000000000  0.5775280000000000
  0.5775280000000000  0.0775280000000000  0.5775280000000000
  0.0775280000000000  0.5775280000000000  0.5775280000000000
  0.5775280000000000  0.5775280000000000  0.5775280000000000
