Mg1 B2
1.0
   1.5368400079881850   -2.6618849769400956    0.0000000000000000
   1.5368400079881850    2.6618849769400956    0.0000000000000000
   0.0000000000000000    0.0000000000000000    3.5343499999999999
Mg B
1 2
direct
   0.0000000000000000    0.0000000000000000    0.0000000000000000 Mg2+
   0.3333333333333333    0.6666666666666666    0.5000000000000000 B-
   0.6666666666666667    0.3333333333333334    0.5000000000000000 B-
