generated by phonopy
   1.0
     4.6105200239645550   -7.9856549308202869    0.0000000000000000
     4.6105200239645550    7.9856549308202869    0.0000000000000000
     0.0000000000000000    0.0000000000000000   10.6030499999999996
Mg B
  27   54
Direct
  0.0000000000000000  0.0000000000000000  0.0000000000000000
  0.3333333333333333  0.0000000000000000  0.0000000000000000
  0.6666666666666666  0.0000000000000000  0.0000000000000000
  0.0000000000000000  0.3333333333333333  0.0000000000000000
  0.3333333333333333  0.3333333333333333  0.0000000000000000
  0.6666666666666666  0.3333333333333333  0.0000000000000000
  0.0000000000000000  0.6666666666666666  0.0000000000000000
  0.3333333333333333  0.6666666666666666  0.0000000000000000
  0.6666666666666666  0.6666666666666666  0.0000000000000000
  0.0000000000000000  0.0000000000000000  0.3333333333333333
  0.3333333333333333  0.0000000000000000  0.3333333333333333
  0.6666666666666666  0.0000000000000000  0.3333333333333333
  0.0000000000000000  0.3333333333333333  0.3333333333333333
  0.3333333333333333  0.3333333333333333  0.3333333333333333
  0.6666666666666666  0.3333333333333333  0.3333333333333333
  0.0000000000000000  0.6666666666666666  0.3333333333333333
  0.3333333333333333  0.6666666666666666  0.3333333333333333
  0.6666666666666666  0.6666666666666666  0.3333333333333333
  0.0000000000000000  0.0000000000000000  0.6666666666666666
  0.3333333333333333  0.0000000000000000  0.6666666666666666
  0.6666666666666666  0.0000000000000000  0.6666666666666666
  0.0000000000000000  0.3333333333333333  0.6666666666666666
  0.3333333333333333  0.3333333333333333  0.6666666666666666
  0.6666666666666666  0.3333333333333333  0.6666666666666666
  0.0000000000000000  0.6666666666666666  0.6666666666666666
  0.3333333333333333  0.6666666666666666  0.6666666666666666
  0.6666666666666666  0.6666666666666666  0.6666666666666666
  0.1111111111111111  0.2222222222222222  0.1666666666666667
  0.4444444444444444  0.2222222222222222  0.1666666666666667
  0.7777777777777778  0.2222222222222222  0.1666666666666667
  0.1111111111111111  0.5555555555555555  0.1666666666666667
  0.4444444444444444  0.5555555555555555  0.1666666666666667
  0.7777777777777778  0.5555555555555555  0.1666666666666667
  0.1111111111111111  0.8888888888888888  0.1666666666666667
  0.4444444444444444  0.8888888888888888  0.1666666666666667
  0.7777777777777778  0.8888888888888888  0.1666666666666667
  0.1111111111111111  0.2222222222222222  0.5000000000000000
  0.4444444444444444  0.2222222222222222  0.5000000000000000
  0.7777777777777778  0.2222222222222222  0.5000000000000000
  0.1111111111111111  0.5555555555555555  0.5000000000000000
  0.4444444444444444  0.5555555555555555  0.5000000000000000
  0.7777777777777778  0.5555555555555555  0.5000000000000000
  0.1111111111111111  0.8888888888888888  0.5000000000000000
  0.4444444444444444  0.8888888888888888  0.5000000000000000
  0.7777777777777778  0.8888888888888888  0.5000000000000000
  0.1111111111111111  0.2222222222222222  0.8333333333333333
  0.4444444444444444  0.2222222222222222  0.8333333333333333
  0.7777777777777778  0.2222222222222222  0.8333333333333333
  0.1111111111111111  0.5555555555555555  0.8333333333333333
  0.4444444444444444  0.5555555555555555  0.8333333333333333
  0.7777777777777778  0.5555555555555555  0.8333333333333333
  0.1111111111111111  0.8888888888888888  0.8333333333333333
  0.4444444444444444  0.8888888888888888  0.8333333333333333
  0.7777777777777778  0.8888888888888888  0.8333333333333333
  0.2222222222222222  0.1111111111111111  0.1666666666666667
  0.5555555555555556  0.1111111111111111  0.1666666666666667
  0.8888888888888890  0.1111111111111111  0.1666666666666667
  0.2222222222222222  0.4444444444444445  0.1666666666666667
  0.5555555555555556  0.4444444444444445  0.1666666666666667
  0.8888888888888890  0.4444444444444445  0.1666666666666667
  0.2222222222222222  0.7777777777777778  0.1666666666666667
  0.5555555555555556  0.7777777777777778  0.1666666666666667
  0.8888888888888890  0.7777777777777778  0.1666666666666667
  0.2222222222222222  0.1111111111111111  0.5000000000000000
  0.5555555555555556  0.1111111111111111  0.5000000000000000
  0.8888888888888890  0.1111111111111111  0.5000000000000000
  0.2222222222222222  0.4444444444444445  0.5000000000000000
  0.5555555555555556  0.4444444444444445  0.5000000000000000
  0.8888888888888890  0.4444444444444445  0.5000000000000000
  0.2222222222222222  0.7777777777777778  0.5000000000000000
  0.5555555555555556  0.7777777777777778  0.5000000000000000
  0.8888888888888890  0.7777777777777778  0.5000000000000000
  0.2222222222222222  0.1111111111111111  0.8333333333333333
  0.5555555555555556  0.1111111111111111  0.8333333333333333
  0.8888888888888890  0.1111111111111111  0.8333333333333333
  0.2222222222222222  0.4444444444444445  0.8333333333333333
  0.5555555555555556  0.4444444444444445  0.8333333333333333
  0.8888888888888890  0.4444444444444445  0.8333333333333333
  0.2222222222222222  0.7777777777777778  0.8333333333333333
  0.5555555555555556  0.7777777777777778  0.8333333333333333
  0.8888888888888890  0.7777777777777778  0.8333333333333333
